TP2/100600.txt
10
21
1 2 0 1000
1 3 0 1000
7 1 0 1000
8 1 0 1000
2 7 0 10
7 3 0 1000
8 2 0 1000
3 8 0 70
4 2 0 1000
7 4 0 1000
8 5 0 1000
9 3 0 1000
4 5 0 1000
5 9 0 10
9 4 0 1000
10 5 0 1000
9 6 0 1000
4 6 0 1000
10 4 0 1000
6 10 0 10
4 1 -1 1000
0
0
0
0
0
0
0
0
0
0





